# quantidade de tarefas
set N := 1 2 3;

# quantidade de maquinas
set M := 1 2 ;

param numMachine := 2;
param numTask := 3;

#Parametro de makespan de cada tarefa i em cada maquina j
param T := 
  1 1 1
  1 2 1
  2 1 1
  2 2 1
  3 1 1
  3 2 1
;


 #tabela de entrada

param P := 100 ;#numero gigante
